CMD:
./solvers/bin/cadical --plain --no-reduce -t 1600 ./data/cnfs//picorv32_mutAX_nomem-p2/picorv32_mutAX_nomem-p2.23.cnf

c --- [ banner ] -------------------------------------------------------------
c 
c CaDiCaL SAT Solver
c Copyright (c) 2016-2024
c A. Biere, M. Fleury, N. Froleyks, K. Fazekas, F. Pollitt, T. Faller
c JKU Linz, University of Freiburg, TU Wien
c 
c Version 2.1.3 5296d3d2a9bf48c154ab2acb5e44625776d821bf
c g++ (Gentoo 12.3.1_p20230526 p2) 12.3.1 20230526 -Wall -Wextra -O3 -DNDEBUG
c Sat Aug 9 07:26:21 PDT 2025 Linux cedar2.int.cedar.computecanada.ca 5.14.0-362.24.2.el9_3.x86_64 x86_64
c 
c --- [ limit ] --------------------------------------------------------------
c 
c setting time limit to 1600 seconds real time (due to '-t 1600')
c 
c --- [ parsing input ] ------------------------------------------------------
c 
c reading DIMACS file from './data/cnfs//picorv32_mutAX_nomem-p2/picorv32_mutAX_nomem-p2.23.cnf'
c opening file to read './data/cnfs//picorv32_mutAX_nomem-p2/picorv32_mutAX_nomem-p2.23.cnf'
c found 'p cnf 1319702 3896841' header
c parsed 3896841 clauses in 0.75 seconds process time
c 
c --- [ options ] ------------------------------------------------------------
c 
c   --compact=false                (different from default 'true')
c   --decompose=false              (different from default 'true')
c   --deduplicate=false            (different from default 'true')
c   --elim=false                   (different from default 'true')
c   --probe=false                  (different from default 'true')
c   --reduce=false                 (different from default 'true')
c   --subsume=false                (different from default 'true')
c   --ternary=false                (different from default 'true')
c   --transred=false               (different from default 'true')
c   --vivify=false                 (different from default 'true')
c 
c --- [ solving ] ------------------------------------------------------------
c 
c time measured in process time since initialization
c 
c  seconds   reductions  redundant   irredundant
c          MB    restarts       trail         variables
c           level   conflicts       glue            remaining
c 
c *  0.75 591  0 0   0    0    0  0% 0 3694719 1176368 89%
c {  0.97 605  0 0   0    0    0  0% 0 3694719 1176368 89%
c i  1.01 606 475 0   0   29   27 14% 1 3694719 1163047 88%
c i  1.07 606 439 0   1   50   46 15% 2 3694719 1148678 87%
c i  1.08 606 430 0   1   51   46 15% 2 3694719 1135310 86%
c i  1.09 606 327 0   1   69   60 15% 2 3694719 1135280 86%
c i  1.09 606 322 0   1   70   60 15% 2 3694719 1135267 86%
c i  1.15 606 226 0   7  101   87 16% 2 3694719 1135252 86%
c i  1.33 606 190 0  25  189  148 20% 3 3694719 1135251 86%
c i  1.46 607 137 0  38  339  282 19% 3 3694719 1135250 86%
c i  1.48 607 135 0  38  344  286 19% 3 3694719 1135215 86%
c i  1.48 607 135 0  38  346  287 19% 3 3694719 1135199 86%
c i  1.52 608 132 0  38  369  306 20% 3 3694719 1134982 86%
c i  1.82 610 170 0  51  486  416 23% 3 3694719 1120621 85%
c i  2.03 610 142 0  68  612  522 22% 3 3694719 1120557 85%
c i  2.07 610 136 0  68  645  551 22% 3 3694719 1120520 85%
c i  2.08 610 136 0  68  647  552 22% 3 3694719 1120495 85%
c i  2.19 610 131 0  69  706  604 23% 3 3694719 1120471 85%
c i  2.30 610 114 0  71  882  732 22% 3 3694719 1120470 85%
c }  2.34 611 108 0  71 1002  819 22% 3 3694719 1120470 85%
c 
c  seconds   reductions  redundant   irredundant
c          MB    restarts       trail         variables
c           level   conflicts       glue            remaining
c 
c [  2.34 611  0 0  71 1002  819  0% 0 3694719 1120470 85%
c O  2.66 611 16137 0  71 1003  820 88% 4 3694719 1120470 85%
c i  3.47 612 14598 0  71 1298 1097 86% 6 3694719 1120468 85%
c i  3.53 612 14549 0  71 1315 1113 86% 7 3694719 1120466 85%
c i 10.45 614 9960 0  72 2617 2309 70% 10 3694719 1120385 85%
c i 10.69 614 9289 0  72 2745 2419 67% 10 3694719 1120382 85%
c i 10.69 614 9284 0  72 2746 2419 67% 10 3694719 1120377 85%
c ] 11.50 615 8161 0  72 3006 2659 63% 9 3694719 1120377 85%
c { 11.50 615 108 0  72 3006 2659 22% 3 3694719 1120377 85%
c F 11.52 615 108 0  72 3007 2660 22% 3 3694719 1120377 85%
c i 11.60 615 91 0  75 3237 2867 21% 3 3694719 1120375 85%
c i 11.60 615 90 0  75 3253 2880 21% 3 3694719 1120373 85%
c i 11.76 615 84 0  79 3357 2975 21% 3 3694719 1120367 85%
c i 11.76 615 84 0  79 3360 2977 21% 3 3694719 1120316 85%
c i 11.76 615 84 0  79 3361 2977 21% 3 3694719 1120265 85%
c i 12.05 615 82 0  91 3447 3056 21% 3 3694719 1120264 85%
c i 12.25 615 79 0 113 3659 3249 21% 3 3694719 1120263 85%
c i 12.36 615 76 0 122 3790 3350 21% 3 3694719 1120220 85%
c i 12.48 615 74 0 141 3851 3408 21% 3 3694719 1120219 85%
c i 13.71 616 87 0 169 4057 3513 23% 3 3694719 1120218 85%
c 
c  seconds   reductions  redundant   irredundant
c          MB    restarts       trail         variables
c           level   conflicts       glue            remaining
c 
c i 13.71 616 87 0 169 4058 3513 23% 3 3694719 1120070 85%
c i 13.98 616 86 0 179 4270 3706 22% 3 3694719 1120069 85%
c i 14.00 616 83 0 179 4361 3787 22% 3 3694719 1120062 85%
c i 14.01 616 83 0 179 4363 3788 22% 3 3694719 1119999 85%
... skipped 138524 lines ...
v 1319283 1319284 -1319285 -1319286 1319287 -1319288 -1319289 -1319290 1319291
v -1319292 -1319293 1319294 -1319295 1319296 1319297 -1319298 -1319299 1319300
v -1319301 -1319302 -1319303 1319304 -1319305 -1319306 1319307 1319308 1319309
v -1319310 -1319311 1319312 -1319313 -1319314 -1319315 1319316 -1319317
v -1319318 1319319 1319320 1319321 -1319322 -1319323 1319324 -1319325 -1319326
v -1319327 1319328 -1319329 -1319330 1319331 1319332 1319333 -1319334 -1319335
v 1319336 -1319337 -1319338 -1319339 1319340 -1319341 -1319342 1319343 1319344
v 1319345 -1319346 -1319347 1319348 -1319349 -1319350 -1319351 1319352
v -1319353 -1319354 1319355 1319356 1319357 -1319358 -1319359 1319360 -1319361
v -1319362 -1319363 1319364 -1319365 -1319366 1319367 1319368 -1319369 1319370
v -1319371 1319372 -1319373 -1319374 -1319375 1319376 -1319377 -1319378
v 1319379 1319380 1319381 -1319382 -1319383 1319384 -1319385 -1319386 -1319387
v 1319388 -1319389 -1319390 1319391 1319392 1319393 -1319394 -1319395 1319396
v -1319397 -1319398 -1319399 1319400 -1319401 1319402 1319403 1319404 -1319405
v -1319406 1319407 -1319408 -1319409 -1319410 1319411 -1319412 1319413 1319414
v 1319415 -1319416 -1319417 1319418 -1319419 -1319420 -1319421 1319422
v -1319423 1319424 1319425 1319426 -1319427 -1319428 1319429 -1319430 -1319431
v -1319432 1319433 -1319434 1319435 1319436 1319437 -1319438 -1319439 1319440
v -1319441 -1319442 -1319443 1319444 -1319445 1319446 1319447 1319448 -1319449
v -1319450 1319451 -1319452 -1319453 -1319454 1319455 -1319456 1319457 1319458
v -1319459 1319460 -1319461 1319462 -1319463 -1319464 -1319465 1319466
v -1319467 1319468 1319469 1319470 -1319471 -1319472 1319473 -1319474 -1319475
v -1319476 1319477 -1319478 1319479 1319480 1319481 -1319482 -1319483 1319484
v -1319485 -1319486 -1319487 1319488 -1319489 1319490 1319491 1319492 -1319493
v -1319494 1319495 -1319496 -1319497 -1319498 1319499 -1319500 1319501 1319502
v 1319503 -1319504 -1319505 1319506 -1319507 -1319508 -1319509 1319510
v -1319511 1319512 1319513 1319514 -1319515 -1319516 1319517 -1319518 -1319519
v -1319520 1319521 -1319522 1319523 1319524 1319525 -1319526 -1319527 1319528
v -1319529 -1319530 -1319531 1319532 -1319533 1319534 1319535 1319536 -1319537
v -1319538 1319539 -1319540 -1319541 -1319542 1319543 -1319544 1319545 1319546
v -1319547 1319548 -1319549 1319550 -1319551 -1319552 -1319553 1319554
v -1319555 1319556 1319557 1319558 -1319559 -1319560 -1319561 -1319562 1319563
v -1319564 1319565 -1319566 1319567 1319568 -1319569 -1319570 1319571 -1319572
v 1319573 -1319574 -1319575 -1319576 -1319577 1319578 -1319579 -1319580
v 1319581 -1319582 -1319583 1319584 -1319585 -1319586 1319587 -1319588
v -1319589 1319590 -1319591 -1319592 1319593 -1319594 -1319595 1319596
v -1319597 -1319598 1319599 -1319600 -1319601 1319602 -1319603 -1319604
v 1319605 -1319606 -1319607 1319608 -1319609 -1319610 1319611 -1319612
v -1319613 1319614 -1319615 -1319616 1319617 -1319618 -1319619 1319620
v -1319621 -1319622 1319623 -1319624 -1319625 1319626 -1319627 -1319628
v 1319629 -1319630 -1319631 1319632 -1319633 -1319634 1319635 -1319636
v -1319637 1319638 -1319639 -1319640 1319641 -1319642 -1319643 1319644
v -1319645 -1319646 1319647 -1319648 -1319649 1319650 -1319651 -1319652
v 1319653 -1319654 -1319655 1319656 -1319657 -1319658 1319659 -1319660
v -1319661 1319662 -1319663 -1319664 1319665 -1319666 -1319667 1319668
v -1319669 -1319670 -1319671 -1319672 1319673 -1319674 -1319675 -1319676
v -1319677 1319678 -1319679 1319680 -1319681 -1319682 -1319683 1319684
v -1319685 1319686 -1319687 -1319688 1319689 -1319690 -1319691 -1319692
v -1319693 1319694 -1319695 -1319696 -1319697 -1319698 1319699 -1319700
v 1319701 -1319702 0
c 
c --- [ run-time profiling ] -------------------------------------------------
c 
c process time taken by individual solving procedures
c (percentage relative to process time for solving)
c 
c       282.24  100.00% search
c       213.53   75.65% stable
c        65.17   23.09% unstable
c         3.33    1.18% walk
c         0.75    0.27% parse
c         0.22    0.08% lucky
c         0.00    0.00% simplify
c   =================================
c       282.24   99.71% solve
c 
c last line shows process time for solving
c (percentage relative to total process time)
c 
c --- [ statistics ] ---------------------------------------------------------
c 
c chronological:             26939        42.29 %  of conflicts
c conflicts:                 63703       225.70    per second
c decisions:                573049      2030.35    per second
c fixed:                    203123        15.39 %  of all variables
c learned:                   57175        89.75 %  per conflict
c learned_lits:           14335485       100.00 %  learned literals
c minimized:                     0         0.00 %  learned literals
c shrunken:                1696764        11.84 %  learned literals
c minishrunken:            2940912        20.51 %  learned literals
c otfs:                        288         0.45 %  of conflict
c propagations:         1924240868         6.82 M  per second
c rephased:                     10      6370.30    interval
c restarts:                   1502        42.41    interval
c stabilizing:                   3        65.94 %  of conflicts
c subsumed:                   2086         0.06 %  of all clauses
c strengthened:                286         0.01 %  of all clauses
c walked:                        2     31851.50    interval
c 
c seconds are measured in process time for solving
c 
c --- [ resources ] ----------------------------------------------------------
c 
c total process time since initialization:       283.06    seconds
c total real time since initialization:          284.80    seconds
c maximum resident set size of process:          769.11    MB
c 
c --- [ shutting down ] ------------------------------------------------------
c 
c exit 10
